atom_style	atomic #sphere 
dimension	2
boundary p p p #--- pbc
#newton off
read_data	data.txt	
#change_box	triclinic
#---
#--- DEFINE VARIABLES
#---
#--- dt
variable Dt equal 0.05
#--- Pressure
variable PXX equal 0.01 #--- confining press
#--- strain rate
variable EYY equal 0.01 #--- final strain
variable EYYDOT equal -1e-06
#--- time steps
variable NRUN equal ${EYY}/(-${EYYDOT}*${Dt}) #--- time steps
#--- oscillation 
variable AMP equal 0.5*${EYY}*90.0
variable TP equal 1.0e4
#--- kt / kn
#variable KN equal 1.0
#variable KT equal 0.5
#--- drag
variable CDRAG equal 2.0 #--- damping rate (mean drag)
#variable GAMMAN equal 2.0 #--- damping rate (pair drag normal)
#variable GAMMAT equal 2.0 #--- damping rate (pair drag transverse)
variable TBRST equal 1.0 #--- barostat time scale
#--- dumping frequency
variable NFREQ	equal 1 
#--- set mu & c
#variable FRICT  equal 0.4
#---
#--- interactions
#---
pair_style      harm    1.41 #--- neighbor list cut-off rcngh=max(rc)
pair_coeff      1 1 1.0 1.0 1.0 #--- itype, jtype, eps, req, rc: if rep rc=req elif rep+att rc>req
pair_coeff      2 2 1.96 1.4 1.4
pair_coeff      1 2 1.44 1.2 1.2
#--- dynamics
fix     1	all	nve
fix	2	all	viscous	${CDRAG}
fix	3	all	enforce2d
#--- neighbor list
neigh_modify	delay	0	every	1	check	no
#communicate single vel yes 
#--- time step
timestep	${Dt}
#--- output
thermo	1000
thermo_style	custom	step	pe	ke	pxx	pyy
thermo_modify	norm	no
#--- compute
compute         strsg all stress/atom pair #--- compute stress
#--- dump
dump            1 all custom ${NFREQ} strsg.xyz id type c_strsg[1] c_strsg[2]      c_strsg[4] #c_strsg[7] c_strsg[8]      c_strsg[10] #---stress
dump_modify     1 format "%d %d %e %e %e"
#--- barostat
fix 50 all press/berendsen x ${PXX} ${PXX} ${TBRST} 0.0 0.0 #--- pi pf drag ry(buffer zone*2) -vy 
#--- shear 
fix	4	all	deform	1	y	erate	   ${EYYDOT}	units	box remap none #--- area-preserving axial shear
#--- run
run	${NRUN}
#
#--- wait
unfix 4
variable NWAIT equal ${NRUN}/10
run     ${NWAIT}
#--- oscillation 
unfix 4
fix	4	all	deform	1	y	wiggle   ${AMP}	${TP}	units	box remap none #--- area-preserving axial shear
run	${NRUN}


