### Restart simulation ###
### Cisaillement unixial de matériaux granulaires ###
 
## Cisaillement de l'échantillon ##
    
    # Début de simulation
    timestep     1E-5 # Pas de temps de la simulation
    
    # Definition du cisaillement par vitesse contante imposée par inclinaison de la boite de cisaillement et compression unixiale 
    fix          cis_ela all deform 1 xy wiggle 1 10 units box
    fix          comp_floes all nph/sphere & 
                 y 2E3 2E3 1 &
                 couple none disc 
   
    fix          calcul_v_m all nve/sphere disc # calcul vélocité et moment angulaire de chaque sphère
    
    fix          2Dsimu all enforce2d # assure une simulation 2D en annulant les forces/vitesse dans la direction z

## Calculs ## 
 
    # Calcul des voisins
    compute      voisin all contact/atom # calcul les voisins situé à d = dmin du centre d'un grain
    compute      moy_voisin all reduce ave c_voisin # moyenne du nombres de voisins 
    
    # Calcul des contraintes du système
    compute      sigma all stress/atom NULL virial # calcul les contraintes cisaillantes
    compute      moy_sigma all reduce sum c_sigma[*] # somme le tenseur de contrainte sur l'ensemble des atomes
    
    variable     p equal "(c_moy_sigma[1]+c_moy_sigma[2])/2"
    variable     sigma_xx equal c_moy_sigma[1]
    variable     sigma_yy equal c_moy_sigma[2]
    variable     sigma_xy equal c_moy_sigma[4]
    
    # Déplacement des grains
    compute      u_floes all displace/atom
    compute      u_moy_floes all reduce ave c_u_floes[*][*]

## Commande d'affichage ##

    thermo       5000 # affichage tout les 5 000 pas de temps
    thermo_style custom & 
                 step atoms temp press & 
                 c_moy_voisin density &
                 lx ly & 
                 v_sigma_xx v_sigma_yy v_sigma_xy & 
                 v_p c_u_moy_floes[1] c_u_moy_floes[2]
    
    # Sorties graphiques
    #dump		 cis_ela_img all image 10000 cis_ela.*.jpg type type &
    #             zoom 1.6 adiam 4.0
    #dump_modify	 cis_ela_img pad 5
    
    #dump         evo_voisin all custom 1000 voisin.txt id c_voisin # affiche le nombre de voisin / grain dans un fichier texte pour d = dmin
 
    #dump         shearing all movie 500 shearing.avi type type &
    #             zoom 1.2 adiam 4.0 # crée une vidéo du cisaillement
	#dump_modify  shearing pad 5

## Fin du cisaillement ##
    
	run          50000 #  50 000 pas de simulations effectués
    
### Fin du module de cisaillement elastique ###