### Simulation parameters ###

	## Simulation variables ## 

		# Constant to be modified by the python routine 
		#variable_D_MIN#
		#variable_D_MAX#
		#variable_N_GRAINS#
		#variable_LINI#
		#variable_RHO#
		#variable_VISC#  
	
		# Monitoring variable 
		variable 	D_AVE equal "(v_D_MIN + v_D_MAX)/2" # average diameter of the grains 
		
		# Simulation time lengths
		variable 	RELAX_LEN equal 50 # length of the relaxation step in seconds
	
		# Simulated grain properties
   		variable 	CUTOFF equal 1.4 # cutoff distance for coordination number computation
		variable 	K_N equal 1.1E8 # normal stiffness
		variable 	K_T equal 9.1E7 # tangential stiffness 
		variable 	MU equal 0.7 # grain/grain friction coefficient
		variable 	GAMMA_N equal 655 # normal damping coefficient 
		variable	GAMMA_T equal 600 # tangential damping coefficient 
		
	## Simulation parameters ##
	
		dimension	2 # 2D simulation
		boundary	p p p # Bondary condtion, p periodic conditions, fm fixed/mobile to shrink the box
		atom_style   	sphere # Spherical particles, must define diameters and weigth for every particles create
		newton       	on # off = no action/reaction
		comm_modify  	vel yes 
		units        	si # scientific units used 
    
	## Geometry ##
        
		region boite 	block 0 ${L_INI} 0 ${L_INI} -0.5 0.5 units box # Create a region "boite" L_INI x L_INI x 1
		box          	tilt large # allow large deformation of the box A(xy) > 45°
		
		create_box   	2 boite # Create the simulation box "boite" with 1 type of grains
		change_box   	all triclinic # set periodic boundary conditions
		
		neighbor     	0.1 bin # Update frequency of the particle list 
		neigh_modify 	delay 1 # Update frequency of the particle list every 1 step of time
	        
	## Grain insertion ##  
	      
		read_data 	rand_config.lj add merge # add the rand_config file with random distribution of grains in space / diameter
		pair_style   	gran/hooke ${K_N} ${K_T} ${GAMMA_N} ${GAMMA_T} 0 1 # Frictionless hertzian contacts
		pair_coeff	* *
		
	## Diameters groups ## 
		
		group G_DMIN type 1
		group G_DMAX type 2 

### End of initialisation step ###
